144595
58,24,74,102,14,47,61,103,4,15,43,79,91,60,105,38,101,3,78,96,18,70,94,37,49,32,75,35,63,51,100,82,72,45,25,2,33,53,7,84,39,73,36,71,54,95,104,67,41,11,85,48,62,22,21,17,90,64,16,20,56,40,77,86,46,6,69,88,13,98,31,65,52,5,30,29,55,97,8,106,42,19,81,99,68,9,50,26,34,83,57,23,92,12,93,80,89,76,28,27,10,59,66,44,87,1,58